<number of tasks>
20

<cycle time>
1000

<order strength>
0,8


<task times>
1 168
2 468
3 187
4 96
5 192
6 521
7 203
8 95
9 132
10 150
11 108
12 95
13 61
14 522
15 65
16 559
17 121
18 250
19 24
20 187

<precedence relations>
1,3
1,4
1,5
2,14
2,16
3,6
4,6
5,6
6,7
6,8
6,9
7,10
7,11
7,12
8,10
8,11
8,12
9,10
9,11
9,12
10,13
10,14
11,13
12,14
12,16
13,16
14,15
14,17
14,18
15,19
16,18
18,19
18,20

<end>
